1 6 4 2 10 9 3 7 5 8 2913670 2157762 
2 4 10 1 7 6 5 8 3 9 3011006 1763676 
2 4 10 1 9 6 5 8 3 7 3016380 1655122 
3 7 2 4 8 9 5 6 10 1 3003812 1945206 
3 7 2 10 6 9 5 4 1 8 3161774 1632768 
3 10 4 7 8 6 5 9 2 1 2957598 1972302 
4 2 5 10 9 7 1 6 8 3 4656190 1440264 
6 2 5 10 9 7 1 4 8 3 4587008 1443068 
7 4 10 1 9 6 5 8 3 2 3227068 1601818 
7 4 10 3 9 6 1 8 5 2 3337864 1580278 
8 4 10 2 6 9 1 7 5 3 3406874 1580046 
8 4 10 2 7 6 1 9 5 3 3239972 1581630 
8 4 10 2 9 6 1 7 5 3 3427484 1513460 
8 7 2 4 6 9 1 10 5 3 3636620 1468960 
8 7 2 10 6 9 1 4 5 3 3492962 1472730 
